# Solution for model GasLib-40
# Objective value = 4.3565639909184291e+01
loadshed[innode_1] 0
loadshed[innode_2] 0
loadshed[innode_3] 0
loadshed[innode_4] 0
loadshed[innode_5] 0
loadshed[innode_6] 0
loadshed[innode_7] 0
loadshed[innode_8] 0
loadshed[source_1] -1.3747239313196125e-01
loadshed[source_2] 2.5863768116897390e-02
loadshed[source_3] 3.8718306590763396e-01
loadshed[sink_1] 0
loadshed[sink_2] 0
loadshed[sink_3] 0
loadshed[sink_4] 0
loadshed[sink_5] 0
loadshed[sink_6] 0
loadshed[sink_7] 0
loadshed[sink_8] 0
loadshed[sink_9] 0
loadshed[sink_10] 0
loadshed[sink_11] 0
loadshed[sink_12] 1
loadshed[sink_13] 0
loadshed[sink_14] 0
loadshed[sink_15] 0
loadshed[sink_16] 0
loadshed[sink_17] 0
loadshed[sink_18] 0
loadshed[sink_19] 0
loadshed[sink_20] 0
loadshed[sink_21] 1
loadshed[sink_22] 0
loadshed[sink_23] 0
loadshed[sink_24] 6.6388626196286094e-01
loadshed[sink_25] 0
loadshed[sink_26] 0
loadshed[sink_27] 0
loadshed[sink_28] 0
loadshed[sink_29] 0
flow[source_1,sink_3] 1.7982332659478539e+02
flow[innode_1,sink_16] 1.6354166666666970e+01
flow[innode_6,sink_13] 1.7598767329091789e+01
flow[sink_13,sink_14] 1.2446006624251211e+00
flow[sink_14,sink_10] -1.5109566004241515e+01
flow[sink_25,sink_26] 1.2242686848397715e+02
flow[sink_26,sink_9] 1.6354166666669244e+01
flow[sink_9,sink_18] 0
flow[sink_26,sink_4] 8.9718535150641230e+01
flow[sink_4,sink_20] -1.5264241672898830e+01
flow[sink_18,sink_6] -1.6354166666667879e+01
flow[sink_25,innode_8] -147.114993261449
flow[sink_6,sink_7] -6.5416666666666671e+01
flow[sink_6,sink_22] 3.2708333333333641e+01
flow[sink_7,sink_24] 5.4968600908157121e+00
flow[sink_22,sink_1] 1.6354166666666970e+01
flow[sink_24,sink_21] 0
flow[sink_21,sink_12] 0
flow[sink_7,sink_5] -8.7267693424150565e+01
flow[sink_5,sink_17] -1.0362186009081724e+02
flow[sink_17,sink_4] -8.8628610156873393e+01
flow[sink_17,sink_8] -3.1347416600610504e+01
flow[sink_3,sink_23] 16.3541666666697
flow[sink_8,sink_20] -4.7701583267277172e+01
flow[sink_25,sink_20] 7.9319991606842621e+01
flow[sink_25,sink_15] -8.8584800825129534e+01
flow[sink_15,sink_29] -5.8989965833661863e+01
flow[sink_29,sink_28] 1.6354166666667879e+01
flow[sink_29,sink_2] 6.2303168324801007e+01
flow[sink_2,sink_15] 4.5949001658134343e+01
flow[sink_29,innode_7] -1.5400146749179743e+02
flow[innode_4,sink_19] 9.6880399337588287e+01
flow[sink_19,innode_3] 3.1315697339926711e+01
flow[innode_4,innode_5] 0
flow[sink_27,innode_5] 0
flow[sink_27,sink_19] -1.6354166666679703e+01
flow[sink_10,sink_11] 3.2708333333333641e+01
flow[sink_10,innode_2] -3.2856368664315205e+01
flow[sink_10,innode_3] -3.1315697339926711e+01
flow[innode_6,sink_25] -1.7598767329091789e+01
flow[sink_11,innode_1] 1.6354166666666970e+01
flow[sink_19,innode_2] 3.2856368664315205e+01
flow[source_3,innode_4] 9.6880399337588287e+01
flow[source_2,innode_7] 1.5400146749179743e+02
flow[sink_3,innode_8] 147.114993261449
pressure[innode_1] 7.5200082077410286e+01
pressure[innode_2] 7.7088378170169847e+01
pressure[innode_3] 7.7019033104528617e+01
pressure[innode_4] 81.01325
pressure[innode_5] 81.01325
pressure[innode_6] 7.4736368511209847e+01
pressure[innode_7] 81.01325
pressure[innode_8] 8.0412169314194315e+01
pressure[source_1] 81.01325
pressure[source_2] 81.01325
pressure[source_3] 81.01325
pressure[sink_1] 4.3076527126519455e+00
pressure[sink_2] 7.5316104477592816e+01
pressure[sink_3] 8.0412169314194315e+01
pressure[sink_4] 54.7068693002087
pressure[sink_5] 4.3600696487373121e+01
pressure[sink_6] 6.4087303230393191e+00
pressure[sink_7] 7.3067452266395092e+00
pressure[sink_8] 5.2502595530748096e+01
pressure[sink_9] 6.5135076977253675e+01
pressure[sink_10] 7.5351783385013832e+01
pressure[sink_11] 7.5200082077410286e+01
pressure[sink_12] 1.01325
pressure[sink_13] 74.6393494479518
pressure[sink_14] 7.4637122129049857e+01
pressure[sink_15] 7.5166091114175856e+01
pressure[sink_16] 74.1784322425926
pressure[sink_17] 5.1319776063821337e+01
pressure[sink_18] 5.9720253802860794e+00
pressure[sink_19] 7.7088378170169847e+01
pressure[sink_20] 5.5826725044182716e+01
pressure[sink_21] 1.01325
pressure[sink_22] 5.3714218550069557e+00
pressure[sink_23] 8.0247451302534529e+01
pressure[sink_24] 1.01325
pressure[sink_25] 7.4736368511209847e+01
pressure[sink_26] 66.1139160611961
pressure[sink_27] 7.6737248173026344e+01
pressure[sink_28] 7.6599031771033012e+01
pressure[sink_29] 76.8943140446502
interdiction[source_1,sink_3] 0
interdiction[innode_1,sink_16] 0
interdiction[innode_6,sink_13] 0
interdiction[sink_13,sink_14] 0
interdiction[sink_14,sink_10] 0
interdiction[sink_25,sink_26] 0
interdiction[sink_26,sink_9] 0
interdiction[sink_9,sink_18] 1
interdiction[sink_26,sink_4] 0
interdiction[sink_4,sink_20] 0
interdiction[sink_18,sink_6] 0
interdiction[sink_25,innode_8] 0
interdiction[sink_6,sink_7] 0
interdiction[sink_6,sink_22] 0
interdiction[sink_7,sink_24] 0
interdiction[sink_22,sink_1] 0
interdiction[sink_24,sink_21] 0
interdiction[sink_21,sink_12] 0
interdiction[sink_7,sink_5] 0
interdiction[sink_5,sink_17] 0
interdiction[sink_17,sink_4] 0
interdiction[sink_17,sink_8] 0
interdiction[sink_3,sink_23] 0
interdiction[sink_8,sink_20] 0
interdiction[sink_25,sink_20] 0
interdiction[sink_25,sink_15] 0
interdiction[sink_15,sink_29] 0
interdiction[sink_29,sink_28] 0
interdiction[sink_29,sink_2] 0
interdiction[sink_2,sink_15] 0
interdiction[sink_29,innode_7] 0
interdiction[innode_4,sink_19] 0
interdiction[sink_19,innode_3] 0
interdiction[innode_4,innode_5] 0
interdiction[sink_27,innode_5] 1
interdiction[sink_27,sink_19] 0
interdiction[sink_10,sink_11] 0
interdiction[sink_10,innode_2] 0
interdiction[sink_10,innode_3] 0
interdiction[innode_6,sink_25] 0
interdiction[sink_11,innode_1] 0
interdiction[sink_19,innode_2] 0
interdiction[source_3,innode_4] 0
interdiction[source_2,innode_7] 0
interdiction[sink_3,innode_8] 0
WCcheckFlow[source_1,sink_3] 39
WCcheckFlow[innode_1,sink_16] 1
WCcheckFlow[innode_6,sink_13] 13
WCcheckFlow[sink_13,sink_14] 12
WCcheckFlow[sink_14,sink_10] 11
WCcheckFlow[sink_25,sink_26] 15
WCcheckFlow[sink_26,sink_9] 1
WCcheckFlow[sink_9,sink_18] 0
WCcheckFlow[sink_26,sink_4] 13
WCcheckFlow[sink_4,sink_20] 1
WCcheckFlow[sink_18,sink_6] -1
WCcheckFlow[sink_25,innode_8] -36
WCcheckFlow[sink_6,sink_7] -4
WCcheckFlow[sink_6,sink_22] 2
WCcheckFlow[sink_7,sink_24] 3
WCcheckFlow[sink_22,sink_1] 1
WCcheckFlow[sink_24,sink_21] 2
WCcheckFlow[sink_21,sink_12] 1
WCcheckFlow[sink_7,sink_5] -8
WCcheckFlow[sink_5,sink_17] -9
WCcheckFlow[sink_17,sink_4] -11
WCcheckFlow[sink_17,sink_8] 1
WCcheckFlow[sink_3,sink_23] 1
WCcheckFlow[sink_8,sink_20] 0
WCcheckFlow[sink_25,sink_20] 0
WCcheckFlow[sink_25,sink_15] 6
WCcheckFlow[sink_15,sink_29] 5
WCcheckFlow[sink_29,sink_28] 1
WCcheckFlow[sink_29,sink_2] 1
WCcheckFlow[sink_2,sink_15] 0
WCcheckFlow[sink_29,innode_7] 2
WCcheckFlow[innode_4,sink_19] -3
WCcheckFlow[sink_19,innode_3] -5
WCcheckFlow[innode_4,innode_5] 1
WCcheckFlow[sink_27,innode_5] 0
WCcheckFlow[sink_27,sink_19] -1
WCcheckFlow[sink_10,sink_11] 3
WCcheckFlow[sink_10,innode_2] 1
WCcheckFlow[sink_10,innode_3] 6
WCcheckFlow[innode_6,sink_25] -14
WCcheckFlow[sink_11,innode_1] 2
WCcheckFlow[sink_19,innode_2] 0
WCcheckFlow[source_3,innode_4] -1
WCcheckFlow[source_2,innode_7] -1
WCcheckFlow[sink_3,innode_8] 37
